(set-option :print-success false)
(set-logic QF_UF)
(declare-sort x69 0)
(declare-sort x150 0)
(declare-fun x80 () x150)
(declare-fun x70 (x150 x150) x150)
(declare-fun x26 () x150)
(declare-fun x25 (x150 x150) x150)
(declare-fun x101 () x150)
(declare-fun x90 () x150)
(declare-fun x91 () x150)
(assert (and (and (and (not (= x26 (x25 x26 x26))) (and (not (= (x25 x80 x80) x80)) (not (= x91 (x25 x91 x91))))) (not (= (x25 x90 x90) x90))) (not (= x101 (x25 x101 x101)))))
(assert (and (and (and (and (not (= x91 x101)) (and (not (= x91 x90)) (and (not (= x26 x91)) (and (not (= x80 x101)) (and (and (not (= x80 x26)) (not (= x80 x91))) (not (= x80 x90))))))) (not (= x26 x90))) (not (= x26 x101))) (not (= x101 x90))))
(assert (and (and (not (= x90 (x25 x90 (x25 x90 x90)))) (and (not (= x26 (x25 x26 (x25 x26 x26)))) (and (not (= x80 (x25 x80 (x25 x80 x80)))) (not (= (x25 x91 (x25 x91 x91)) x91))))) (not (= (x25 x101 (x25 x101 x101)) x101))))
(assert (and (or (= x101 (x25 x101 (x25 x101 x101))) (or (or (= (x25 x101 (x25 x101 x26)) x26) (or (= x91 (x25 x101 (x25 x101 x91))) (= x80 (x25 x101 (x25 x101 x80))))) (= (x25 x101 (x25 x101 x90)) x90))) (and (and (or (= x101 (x25 x26 (x25 x26 x101))) (or (or (= x26 (x25 x26 (x25 x26 x26))) (or (= x80 (x25 x26 (x25 x26 x80))) (= x91 (x25 x26 (x25 x26 x91))))) (= (x25 x26 (x25 x26 x90)) x90))) (and (or (= x101 (x25 x91 (x25 x91 x101))) (or (or (= (x25 x91 (x25 x91 x26)) x26) (or (= x91 (x25 x91 (x25 x91 x91))) (= (x25 x91 (x25 x91 x80)) x80))) (= (x25 x91 (x25 x91 x90)) x90))) (or (= (x25 x80 (x25 x80 x101)) x101) (or (or (or (= x80 (x25 x80 (x25 x80 x80))) (= x91 (x25 x80 (x25 x80 x91)))) (= x26 (x25 x80 (x25 x80 x26)))) (= (x25 x80 (x25 x80 x90)) x90))))) (or (= x101 (x25 x90 (x25 x90 x101))) (or (or (= (x25 x90 (x25 x90 x26)) x26) (or (= x80 (x25 x90 (x25 x90 x80))) (= x91 (x25 x90 (x25 x90 x91))))) (= x90 (x25 x90 (x25 x90 x90))))))))
(assert (let ((x66 (x25 x90 x90)) (x14 (x25 x101 x101)) (x115 (x25 x26 x26)) (x86 (x25 x91 x91)) (x18 (x25 x80 x80))) (or (and (not (= x101 x14)) (and (not (= x66 x101)) (and (and (not (= x18 x101)) (not (= x101 x86))) (not (= x101 x115))))) (or (or (and (not (= x26 x14)) (and (and (and (not (= x26 x18)) (not (= x86 x26))) (not (= x26 x115))) (not (= x26 x66)))) (or (and (not (= x14 x91)) (and (and (not (= x115 x91)) (and (not (= x86 x91)) (not (= x91 x18)))) (not (= x66 x91)))) (and (and (and (not (= x80 x115)) (and (not (= x80 x18)) (not (= x86 x80)))) (not (= x66 x80))) (not (= x80 x14))))) (and (not (= x90 x14)) (and (not (= x66 x90)) (and (not (= x90 x115)) (and (not (= x18 x90)) (not (= x90 x86))))))))))
(assert (or (or (and (and (not (= x90 (x25 x90 x90))) (and (and (not (= (x25 x90 x91) x91)) (not (= (x25 x90 x80) x80))) (not (= (x25 x90 x26) x26)))) (not (= x101 (x25 x90 x101)))) (or (and (and (not (= (x25 x26 x90) x90)) (and (not (= (x25 x26 x26) x26)) (and (not (= (x25 x26 x91) x91)) (not (= (x25 x26 x80) x80))))) (not (= (x25 x26 x101) x101))) (or (and (and (not (= x90 (x25 x80 x90))) (and (not (= (x25 x80 x26) x26)) (and (not (= x80 (x25 x80 x80))) (not (= (x25 x80 x91) x91))))) (not (= x101 (x25 x80 x101)))) (and (and (not (= (x25 x91 x90) x90)) (and (not (= x26 (x25 x91 x26))) (and (not (= x80 (x25 x91 x80))) (not (= x91 (x25 x91 x91)))))) (not (= (x25 x91 x101) x101)))))) (and (not (= x101 (x25 x101 x101))) (and (not (= x90 (x25 x101 x90))) (and (not (= (x25 x101 x26) x26)) (and (not (= x80 (x25 x101 x80))) (not (= x91 (x25 x101 x91)))))))))
(assert (and (= x101 (x25 x90 x26)) (and (and (= (x25 x26 x26) x91) (= (x25 x91 x91) x80)) (= (x25 x80 x80) x90))))
(assert (let ((x136 (x25 x26 x91)) (x45 (x25 x90 x26)) (x110 (x25 x91 x26)) (x117 (x25 x90 x91)) (x105 (x25 x90 x101)) (x14 (x25 x80 x101)) (x75 (x25 x91 x101)) (x2 (x25 x26 x26)) (x111 (x25 x101 x80)) (x1 (x25 x26 x80)) (x66 (x25 x80 x90)) (x46 (x25 x26 x90)) (x31 (x25 x90 x90)) (x149 (x25 x101 x91)) (x92 (x25 x90 x80)) (x133 (x25 x101 x90)) (x98 (x25 x26 x101)) (x18 (x25 x80 x80)) (x41 (x25 x91 x80)) (x4 (x25 x91 x90)) (x8 (x25 x101 x26)) (x115 (x25 x80 x26)) (x94 (x25 x91 x91)) (x86 (x25 x80 x91)) (x56 (x25 x101 x101))) (and (and (and (and (and (and (and (and (or (or (or (= x18 x26) (or (= x18 x91) (= x18 x80))) (= x90 x18)) (= x18 x101)) (or (= x86 x101) (or (= x90 x86) (or (= x86 x26) (or (= x86 x80) (= x91 x86)))))) (or (or (or (= x115 x26) (or (= x115 x91) (= x80 x115))) (= x90 x115)) (= x101 x115))) (or (or (or (= x26 x66) (or (= x66 x80) (= x66 x91))) (= x66 x90)) (= x66 x101))) (or (= x14 x101) (or (or (= x26 x14) (or (= x91 x14) (= x80 x14))) (= x14 x90)))) (and (or (= x75 x101) (or (= x90 x75) (or (or (= x75 x91) (= x75 x80)) (= x26 x75)))) (and (and (or (or (= x90 x110) (or (= x26 x110) (or (= x110 x91) (= x80 x110)))) (= x101 x110)) (and (or (= x101 x94) (or (= x90 x94) (or (= x26 x94) (or (= x94 x80) (= x94 x91))))) (or (= x41 x101) (or (= x41 x90) (or (= x41 x26) (or (= x41 x80) (= x91 x41))))))) (or (or (= x90 x4) (or (= x26 x4) (or (= x91 x4) (= x80 x4)))) (= x4 x101))))) (and (or (or (or (= x26 x98) (or (= x80 x98) (= x98 x91))) (= x98 x90)) (= x101 x98)) (and (or (= x46 x101) (or (= x90 x46) (or (= x46 x26) (or (= x91 x46) (= x80 x46))))) (and (or (or (= x90 x2) (or (or (= x2 x91) (= x80 x2)) (= x2 x26))) (= x2 x101)) (and (or (or (or (or (= x136 x91) (= x136 x80)) (= x26 x136)) (= x136 x90)) (= x101 x136)) (or (= x101 x1) (or (or (= x1 x26) (or (= x91 x1) (= x1 x80))) (= x90 x1)))))))) (and (and (and (and (or (or (= x90 x117) (or (= x26 x117) (or (= x117 x80) (= x91 x117)))) (= x117 x101)) (or (or (= x90 x92) (or (= x92 x26) (or (= x92 x80) (= x92 x91)))) (= x101 x92))) (or (= x45 x101) (or (= x45 x90) (or (or (= x45 x91) (= x80 x45)) (= x26 x45))))) (or (= x31 x101) (or (or (or (= x31 x91) (= x31 x80)) (= x26 x31)) (= x31 x90)))) (or (= x105 x101) (or (or (= x26 x105) (or (= x105 x80) (= x91 x105))) (= x90 x105))))) (and (and (and (or (or (or (= x26 x8) (or (= x91 x8) (= x80 x8))) (= x90 x8)) (= x101 x8)) (and (or (or (= x90 x111) (or (= x111 x26) (or (= x111 x80) (= x111 x91)))) (= x101 x111)) (or (or (= x90 x149) (or (or (= x149 x80) (= x91 x149)) (= x26 x149))) (= x101 x149)))) (or (= x133 x101) (or (= x90 x133) (or (= x133 x26) (or (= x91 x133) (= x80 x133)))))) (or (= x56 x101) (or (or (or (= x91 x56) (= x56 x80)) (= x56 x26)) (= x90 x56)))))))
(assert (let ((x27 (x25 x91 x91)) (x103 (x25 x90 x91)) (x74 (x25 x90 x26)) (x57 (x25 x80 x91)) (x89 (x25 x80 x80)) (x135 (x25 x101 x90)) (x9 (x25 x26 x80)) (x109 (x25 x91 x90)) (x87 (x25 x26 x90)) (x49 (x25 x101 x80)) (x157 (x25 x26 x101)) (x24 (x25 x91 x101)) (x22 (x25 x101 x26)) (x131 (x25 x26 x26)) (x153 (x25 x101 x101)) (x77 (x25 x90 x101)) (x123 (x25 x80 x26)) (x63 (x25 x91 x26)) (x60 (x25 x90 x90)) (x19 (x25 x26 x91)) (x11 (x25 x80 x90)) (x78 (x25 x91 x80)) (x95 (x25 x101 x91)) (x59 (x25 x80 x101)) (x120 (x25 x90 x80))) (let ((x14 (not (= x80 x9))) (x2 (not (= x80 x109))) (x122 (not (= x49 x101))) (x119 (not (= x91 x63))) (x97 (not (= x78 x91))) (x102 (not (= x26 x22))) (x86 (not (= x78 x80))) (x8 (not (= x80 x135))) (x46 (not (= x74 x80))) (x85 (not (= x11 x90))) (x34 (not (= x27 x91))) (x125 (not (= x26 x153))) (x130 (not (= x22 x90))) (x42 (not (= x91 x59))) (x111 (not (= x22 x80))) (x72 (not (= x87 x91))) (x156 (not (= x91 x120))) (x149 (not (= x157 x80))) (x7 (not (= x63 x26))) (x151 (not (= x91 x89))) (x104 (not (= x26 x59))) (x40 (not (= x26 x74))) (x44 (not (= x123 x90))) (x129 (not (= x27 x90))) (x5 (not (= x135 x101))) (x136 (not (= x103 x80))) (x100 (not (= x91 x60))) (x143 (not (= x9 x26))) (x144 (not (= x131 x26))) (x15 (not (= x74 x90))) (x38 (not (= x89 x101))) (x110 (not (= x63 x80))) (x18 (not (= x89 x80))) (x117 (not (= x80 x49))) (x17 (not (= x103 x26))) (x148 (not (= x26 x24))) (x121 (not (= x26 x157))) (x43 (not (= x91 x74))) (x155 (not (= x89 x26))) (x48 (not (= x27 x101))) (x3 (not (= x78 x26))) (x13 (not (= x89 x90))) (x1 (not (= x80 x11))) (x33 (not (= x11 x26))) (x54 (not (= x90 x95))) (x67 (not (= x120 x101))) (x4 (not (= x131 x80))) (x134 (not (= x90 x24))) (x39 (not (= x95 x91))) (x158 (not (= x153 x91))) (x50 (not (= x26 x57))) (x127 (not (= x77 x90))) (x16 (not (= x59 x101))) (x23 (not (= x63 x90))) (x56 (not (= x80 x153))) (x52 (not (= x77 x26))) (x118 (not (= x123 x101))) (x64 (not (= x26 x60))) (x12 (not (= x103 x91))) (x68 (not (= x26 x19))) (x73 (not (= x91 x49))) (x81 (not (= x91 x109))) (x71 (not (= x90 x19))) (x65 (not (= x101 x78))) (x96 (not (= x26 x49))) (x112 (not (= x19 x91))) (x31 (not (= x80 x95))) (x21 (not (= x11 x101))) (x92 (not (= x80 x60))) (x137 (not (= x26 x27))) (x138 (not (= x101 x24))) (x146 (not (= x90 x131))) (x116 (not (= x101 x63))) (x114 (not (= x19 x101))) (x159 (not (= x103 x101))) (x62 (not (= x101 x153))) (x107 (not (= x101 x57))) (x82 (not (= x90 x153))) (x41 (not (= x123 x80))) (x142 (not (= x90 x135))) (x154 (not (= x120 x90))) (x124 (not (= x90 x87))) (x139 (not (= x95 x101))) (x36 (not (= x135 x26))) (x29 (not (= x101 x9))) (x51 (not (= x49 x90))) (x93 (not (= x91 x157))) (x126 (not (= x109 x90))) (x140 (not (= x157 x101))) (x83 (not (= x91 x131))) (x32 (not (= x90 x57))) (x47 (not (= x91 x24))) (x45 (not (= x80 x59))) (x35 (not (= x123 x26))) (x132 (not (= x26 x95))) (x152 (not (= x123 x91))) (x106 (not (= x11 x91))) (x79 (not (= x60 x90))) (x113 (not (= x101 x22))) (x98 (not (= x87 x80))) (x61 (not (= x135 x91))) (x55 (not (= x26 x87))) (x6 (not (= x9 x91))) (x147 (not (= x26 x120))) (x30 (not (= x74 x101))) (x20 (not (= x59 x90))) (x75 (not (= x80 x120))) (x133 (not (= x80 x77))) (x28 (not (= x90 x103))) (x58 (not (= x101 x131))) (x128 (not (= x91 x22))) (x53 (not (= x109 x101))) (x105 (not (= x80 x24))) (x37 (not (= x91 x57))) (x88 (not (= x109 x26))) (x115 (not (= x80 x57))) (x10 (not (= x157 x90))) (x145 (not (= x91 x77))) (x94 (not (= x80 x19))) (x66 (not (= x80 x27))) (x99 (not (= x101 x60))) (x84 (not (= x77 x101))) (x108 (not (= x90 x9))) (x141 (not (= x87 x101))) (x76 (not (= x90 x78)))) (or (and (and (and (or x5 x84) (and (or x113 x140) (and (or x122 x16) (or x138 x139)))) (or x62 x62)) (and (and (and (and (or x141 x30) (and (and (or x29 x118) (or x114 x116)) (or x58 x58))) (or x113 x140)) (and (and (or x122 x16) (and (and (and (or x38 x38) (or x107 x65)) (or x29 x118)) (or x67 x21))) (and (or x138 x139) (and (or x53 x159) (and (and (or x65 x107) (or x48 x48)) (or x116 x114)))))) (and (or x5 x84) (and (or x99 x99) (and (and (or x53 x159) (or x21 x67)) (or x30 x141)))))) (or (or (or (and (and (and (or x133 x8) (and (and (or x46 x98) (and (or x136 x2) (or x1 x75))) (or x92 x92))) (and (and (and (or x45 x117) (and (and (and (or x18 x18) (or x86 x115)) (or x14 x41)) (or x75 x1))) (and (and (and (or x94 x110) (and (or x66 x66) (or x115 x86))) (or x2 x136)) (or x31 x105))) (and (and (or x46 x98) (and (and (or x94 x110) (or x14 x41)) (or x4 x4))) (or x149 x111)))) (and (or x56 x56) (and (and (or x149 x111) (and (or x117 x45) (or x31 x105))) (or x133 x8)))) (and (and (and (and (and (and (or x156 x106) (and (and (or x151 x151) (or x97 x37)) (or x152 x6))) (or x42 x73)) (and (and (and (and (or x34 x34) (or x37 x97)) (or x112 x119)) (or x81 x12)) (or x39 x47))) (and (or x128 x93) (and (and (or x83 x83) (and (or x6 x152) (or x112 x119))) (or x43 x72)))) (and (or x145 x61) (and (and (or x43 x72) (and (or x81 x12) (or x156 x106))) (or x100 x100)))) (and (or x158 x158) (and (and (or x128 x93) (and (or x39 x47) (or x73 x42))) (or x145 x61))))) (and (and (and (or x36 x52) (and (or x121 x102) (and (or x104 x96) (or x132 x148)))) (or x125 x125)) (and (and (and (or x121 x102) (and (and (and (or x7 x68) (or x143 x35)) (or x144 x144)) (or x55 x40))) (and (and (or x96 x104) (and (and (or x35 x143) (and (or x3 x50) (or x155 x155))) (or x33 x147))) (and (or x148 x132) (and (or x88 x17) (and (and (or x137 x137) (or x3 x50)) (or x7 x68)))))) (and (or x36 x52) (and (and (and (or x33 x147) (or x88 x17)) (or x40 x55)) (or x64 x64)))))) (and (and (and (or x142 x127) (and (or x79 x79) (and (or x124 x15) (and (or x126 x28) (or x85 x154))))) (and (and (and (and (or x28 x126) (and (and (or x76 x32) (or x129 x129)) (or x23 x71))) (or x134 x54)) (and (and (or x154 x85) (and (and (or x32 x76) (or x13 x13)) (or x108 x44))) (or x51 x20))) (and (or x130 x10) (and (or x15 x124) (and (or x146 x146) (and (or x44 x108) (or x71 x23))))))) (and (and (and (or x10 x130) (and (or x134 x54) (or x20 x51))) (or x127 x142)) (or x82 x82))))))))
(assert (let ((x66 (= x90 (x25 (x25 x90 x90) x90))) (x14 (= x101 (x25 (x25 x101 x101) x101))) (x18 (= (x25 (x25 x80 x80) x80) x80)) (x86 (= (x25 (x25 x91 x91) x91) x91)) (x115 (= x26 (x25 (x25 x26 x26) x26)))) (and (or (or x66 (or (or x86 x18) x115)) x14) (or (and (not x14) (and (and (not (= (x25 (x25 x101 x26) x101) x26)) (and (not (= (x25 (x25 x101 x80) x101) x80)) (not (= (x25 (x25 x101 x91) x101) x91)))) (not (= (x25 (x25 x101 x90) x101) x90)))) (or (and (not (= (x25 (x25 x90 x101) x90) x101)) (and (and (and (not (= x91 (x25 (x25 x90 x91) x90))) (not (= x80 (x25 (x25 x90 x80) x90)))) (not (= (x25 (x25 x90 x26) x90) x26))) (not x66))) (or (and (not (= (x25 (x25 x26 x101) x26) x101)) (and (and (not x115) (and (not (= (x25 (x25 x26 x80) x26) x80)) (not (= x91 (x25 (x25 x26 x91) x26))))) (not (= (x25 (x25 x26 x90) x26) x90)))) (or (and (and (not (= (x25 (x25 x80 x90) x80) x90)) (and (not (= (x25 (x25 x80 x26) x80) x26)) (and (not (= x91 (x25 (x25 x80 x91) x80))) (not x18)))) (not (= x101 (x25 (x25 x80 x101) x80)))) (and (not (= x101 (x25 (x25 x91 x101) x91))) (and (and (and (not (= (x25 (x25 x91 x80) x91) x80)) (not x86)) (not (= x26 (x25 (x25 x91 x26) x91)))) (not (= x90 (x25 (x25 x91 x90) x91))))))))))))
(assert (let ((x149 (x25 x91 x101)) (x151 (x25 x101 x91)) (x7 (x25 x101 x90)) (x20 (x25 x101 x101)) (x14 (x25 x80 x90)) (x41 (x25 x80 x101)) (x24 (x25 x26 x26)) (x4 (x25 x26 x80)) (x115 (x25 x80 x91)) (x105 (x25 x91 x26)) (x86 (x25 x80 x80)) (x111 (x25 x91 x90)) (x66 (x25 x80 x26)) (x75 (x25 x90 x80)) (x3 (x25 x90 x90)) (x50 (x25 x90 x101)) (x131 (x25 x90 x26)) (x83 (x25 x101 x26)) (x6 (x25 x26 x101)) (x110 (x25 x91 x80)) (x1 (x25 x101 x80)) (x89 (x25 x90 x91)) (x31 (x25 x91 x91)) (x95 (x25 x26 x90)) (x56 (x25 x26 x91))) (let ((x120 (= x90 x31)) (x32 (= x101 x95)) (x72 (= x90 x24)) (x49 (= x101 x115)) (x92 (= x115 x80)) (x122 (= x1 x101)) (x48 (= x149 x26)) (x63 (= x80 x105)) (x87 (= x4 x26)) (x39 (= x89 x80)) (x53 (= x149 x90)) (x142 (= x91 x20)) (x28 (= x80 x50)) (x29 (= x6 x26)) (x153 (= x75 x91)) (x43 (= x90 x105)) (x102 (= x90 x95)) (x67 (= x90 x83)) (x129 (= x101 x3)) (x118 (= x26 x50)) (x68 (= x91 x3)) (x119 (= x91 x24)) (x76 (= x101 x111)) (x30 (= x90 x6)) (x112 (= x105 x91)) (x35 (= x95 x91)) (x51 (= x91 x7)) (x134 (= x91 x149)) (x88 (= x111 x26)) (x133 (= x31 x91)) (x128 (= x14 x80)) (x85 (= x6 x80)) (x123 (= x26 x31)) (x148 (= x111 x90)) (x96 (= x89 x90)) (x159 (= x41 x90)) (x100 (= x56 x101)) (x47 (= x80 x131)) (x34 (= x66 x80)) (x79 (= x91 x83)) (x61 (= x95 x80)) (x10 (= x50 x91)) (x18 (= x80 x86)) (x124 (= x151 x91)) (x84 (= x50 x101)) (x54 (= x41 x91)) (x126 (= x80 x20)) (x37 (= x80 x4)) (x12 (= x90 x56)) (x16 (= x151 x101)) (x135 (= x105 x101)) (x130 (= x91 x6)) (x157 (= x26 x66)) (x73 (= x24 x101)) (x33 (= x26 x131)) (x55 (= x3 x26)) (x121 (= x90 x3)) (x98 (= x110 x80)) (x132 (= x90 x14)) (x40 (= x95 x26)) (x117 (= x31 x80)) (x71 (= x83 x80)) (x22 (= x105 x26)) (x15 (= x1 x91)) (x27 (= x56 x80)) (x78 (= x115 x26)) (x145 (= x80 x3)) (x147 (= x89 x26)) (x136 (= x86 x26)) (x140 (= x149 x101)) (x77 (= x66 x101)) (x99 (= x90 x20)) (x2 (= x90 x86)) (x17 (= x14 x26)) (x108 (= x80 x1)) (x64 (= x75 x90)) (x82 (= x26 x151)) (x23 (= x7 x80)) (x8 (= x91 x115)) (x93 (= x80 x111)) (x158 (= x89 x91)) (x104 (= x90 x131)) (x57 (= x26 x110)) (x144 (= x26 x75)) (x58 (= x151 x90)) (x125 (= x131 x101)) (x46 (= x101 x86)) (x44 (= x80 x151)) (x36 (= x101 x75)) (x65 (= x7 x26)) (x5 (= x101 x6)) (x116 (= x90 x1)) (x103 (= x91 x56)) (x107 (= x26 x41)) (x109 (= x4 x91)) (x19 (= x24 x80)) (x113 (= x41 x101)) (x152 (= x66 x91)) (x106 (= x4 x90)) (x94 (= x91 x86)) (x154 (= x149 x80)) (x81 (= x66 x90)) (x59 (= x101 x110)) (x146 (= x80 x41)) (x156 (= x24 x26)) (x52 (= x101 x89)) (x155 (= x91 x131)) (x137 (= x14 x91)) (x21 (= x7 x90)) (x62 (= x101 x20)) (x138 (= x101 x7)) (x114 (= x20 x26)) (x9 (= x90 x110)) (x127 (= x26 x1)) (x38 (= x26 x83)) (x141 (= x90 x50)) (x45 (= x91 x110)) (x74 (= x56 x26)) (x97 (= x31 x101)) (x139 (= x101 x83)) (x60 (= x4 x101)) (x42 (= x80 x75)) (x13 (= x14 x101)) (x143 (= x111 x91)) (x11 (= x115 x90))) (and (and (and (and (and (and (and (or (or (or x106 (or x9 x2)) x64) x116) (or (or (or x81 (or x11 x2)) x132) x159)) (and (and (or (or x17 (or (or x78 x136) x157)) x107) (or (or x144 (or (or x136 x57) x87)) x127)) (and (and (or x54 (or x137 (or (or x94 x8) x152))) (or (or (or (or x94 x45) x109) x153) x15)) (and (or (or x42 (or x37 (or x98 x18))) x108) (or (or x128 (or (or x92 x18) x34)) x146))))) (and (or (or (or x77 (or x46 x49)) x13) x113) (or (or x36 (or (or x59 x46) x60)) x122))) (and (and (or (or x76 (or x135 (or x97 x59))) x140) (or (or (or (or x49 x97) x100) x52) x16)) (and (and (and (or (or x147 (or (or x123 x78) x74)) x82) (or (or (or (or x123 x57) x22) x88) x48)) (and (and (or (or (or x27 (or x92 x117)) x39) x44) (or (or (or x63 (or x98 x117)) x93) x154)) (and (or x134 (or x143 (or x112 (or x133 x45)))) (or x124 (or (or x103 (or x133 x8)) x158))))) (and (or x53 (or x148 (or (or x9 x120) x43))) (or x58 (or (or (or x120 x11) x12) x96)))))) (and (and (or (or (or x73 (or x135 x77)) x125) x139) (or (or x32 (or (or x100 x60) x73)) x5)) (and (and (and (and (or (or x155 (or (or x152 x112) x119)) x79) (or (or (or x119 (or x109 x103)) x35) x130)) (and (or x71 (or (or (or x34 x63) x19) x47)) (or (or (or (or x27 x37) x19) x61) x85))) (and (or x29 (or (or (or x74 x87) x156) x40)) (or (or x33 (or (or x157 x22) x156)) x38))) (and (or (or (or (or x81 x43) x72) x104) x67) (or (or (or x72 (or x106 x12)) x102) x30))))) (and (and (or (or (or x125 (or x52 x36)) x129) x84) (or x138 (or x129 (or (or x13 x76) x32)))) (and (and (and (or x118 (or x55 (or x33 (or x147 x144)))) (or (or (or x40 (or x17 x88)) x55) x65)) (and (and (or x10 (or x68 (or (or x153 x158) x155))) (or (or x68 (or x35 (or x143 x137))) x51)) (and (or x28 (or x145 (or x47 (or x42 x39)))) (or x23 (or (or x61 (or x128 x93)) x145))))) (and (or (or (or x104 (or x96 x64)) x121) x141) (or x21 (or x121 (or x102 (or x132 x148)))))))) (and (and (or x62 (or (or (or x140 x113) x5) x84)) (or x62 (or x138 (or (or x122 x16) x139)))) (and (and (or (or (or (or x116 x58) x67) x21) x99) (or x99 (or x141 (or (or x159 x53) x30)))) (and (and (or x114 (or (or (or x48 x107) x29) x118)) (or (or (or (or x82 x127) x38) x65) x114)) (and (and (or x126 (or (or (or x146 x154) x85) x28)) (or x126 (or (or x71 (or x44 x108)) x23))) (and (or (or (or (or x134 x54) x130) x10) x142) (or (or x51 (or x79 (or x15 x124))) x142))))))))))
(assert (let ((x92 (not (= x90 (x25 x90 x90)))) (x4 (not (= (x25 x26 x26) x26))) (x2 (x25 x91 x90)) (x18 (not (= x80 (x25 x80 x80)))) (x149 (x25 x26 x101)) (x45 (x25 x80 x101)) (x105 (x25 x91 x101)) (x66 (not (= (x25 x91 x91) x91))) (x41 (x25 x80 x26)) (x31 (x25 x101 x91)) (x14 (x25 x26 x80)) (x46 (x25 x90 x26)) (x133 (x25 x90 x101)) (x8 (x25 x101 x90)) (x94 (x25 x26 x91)) (x86 (x25 x91 x80)) (x1 (x25 x80 x90)) (x56 (not (= (x25 x101 x101) x101))) (x98 (x25 x26 x90)) (x115 (x25 x80 x91)) (x117 (x25 x101 x80)) (x75 (x25 x90 x80)) (x111 (x25 x101 x26)) (x110 (x25 x91 x26)) (x136 (x25 x90 x91))) (and (and (and (and (or (not (= x101 x149)) (not (= x101 x111))) (and (or (not (= x101 x45)) (not (= x117 x101))) (or (not (= x105 x101)) (not (= x101 x31))))) (or (not (= x101 x8)) (not (= x101 x133)))) (or x56 x56)) (and (and (and (and (and (or x4 x4) (and (or (not (= x41 x26)) (not (= x14 x26))) (or (not (= x94 x26)) (not (= x110 x26))))) (or (not (= x26 x98)) (not (= x26 x46)))) (or (not (= x26 x149)) (not (= x111 x26)))) (and (and (or (not (= x91 x31)) (not (= x91 x105))) (and (and (and (or x66 x66) (or (not (= x91 x86)) (not (= x91 x115)))) (or (not (= x110 x91)) (not (= x91 x94)))) (or (not (= x2 x91)) (not (= x91 x136))))) (and (or (not (= x80 x117)) (not (= x80 x45))) (and (or (not (= x80 x75)) (not (= x80 x1))) (and (or (not (= x41 x80)) (not (= x80 x14))) (and (or (not (= x115 x80)) (not (= x86 x80))) (or x18 x18))))))) (and (and (or x92 x92) (and (or (not (= x46 x90)) (not (= x90 x98))) (and (or (not (= x90 x75)) (not (= x90 x1))) (or (not (= x136 x90)) (not (= x2 x90)))))) (or (not (= x90 x8)) (not (= x133 x90))))))))
(assert (and (or (= (x25 (x25 x101 x101) x101) x101) (or (or (= (x25 (x25 x26 x101) x101) x26) (or (= x80 (x25 (x25 x80 x101) x101)) (= (x25 (x25 x91 x101) x101) x91))) (= (x25 (x25 x90 x101) x101) x90))) (and (and (or (= x101 (x25 (x25 x101 x26) x26)) (or (or (= x26 (x25 (x25 x26 x26) x26)) (or (= (x25 (x25 x91 x26) x26) x91) (= (x25 (x25 x80 x26) x26) x80))) (= x90 (x25 (x25 x90 x26) x26)))) (and (or (or (= x90 (x25 (x25 x90 x91) x91)) (or (or (= (x25 (x25 x91 x91) x91) x91) (= (x25 (x25 x80 x91) x91) x80)) (= (x25 (x25 x26 x91) x91) x26))) (= (x25 (x25 x101 x91) x91) x101)) (or (or (= (x25 (x25 x90 x80) x80) x90) (or (or (= (x25 (x25 x80 x80) x80) x80) (= (x25 (x25 x91 x80) x80) x91)) (= x26 (x25 (x25 x26 x80) x80)))) (= (x25 (x25 x101 x80) x80) x101)))) (or (= x101 (x25 (x25 x101 x90) x90)) (or (or (or (= x91 (x25 (x25 x91 x90) x90)) (= (x25 (x25 x80 x90) x90) x80)) (= (x25 (x25 x26 x90) x90) x26)) (= (x25 (x25 x90 x90) x90) x90))))))
(assert (let ((x136 (x25 x91 x26)) (x2 (x25 x26 x26)) (x4 (x25 x90 x91)) (x45 (x25 x26 x90)) (x8 (x25 x26 x101)) (x75 (x25 x101 x91)) (x86 (x25 x91 x80)) (x149 (x25 x91 x101)) (x110 (x25 x26 x91)) (x56 (x25 x101 x101)) (x92 (x25 x80 x90)) (x115 (x25 x26 x80)) (x94 (x25 x91 x91)) (x31 (x25 x90 x90)) (x1 (x25 x80 x26)) (x41 (x25 x80 x91)) (x14 (x25 x101 x80)) (x133 (x25 x90 x101)) (x111 (x25 x80 x101)) (x117 (x25 x91 x90)) (x18 (x25 x80 x80)) (x98 (x25 x101 x26)) (x66 (x25 x90 x80)) (x46 (x25 x90 x26)) (x105 (x25 x101 x90))) (and (and (and (and (and (and (not (= x111 x92)) (and (and (and (and (and (not (= x41 x1)) (and (not (= x111 x18)) (and (and (not (= x18 x1)) (not (= x18 x41))) (not (= x92 x18))))) (not (= x41 x92))) (not (= x111 x41))) (not (= x92 x1))) (not (= x1 x111)))) (and (not (= x117 x149)) (and (not (= x136 x149)) (and (not (= x136 x117)) (and (and (and (not (= x94 x136)) (and (not (= x86 x149)) (and (and (not (= x86 x94)) (not (= x136 x86))) (not (= x117 x86))))) (not (= x94 x117))) (not (= x94 x149))))))) (and (not (= x45 x8)) (and (and (not (= x45 x2)) (and (and (and (not (= x2 x110)) (and (and (and (not (= x115 x110)) (not (= x2 x115))) (not (= x115 x45))) (not (= x8 x115)))) (not (= x45 x110))) (not (= x110 x8)))) (not (= x8 x2))))) (and (and (not (= x46 x133)) (and (not (= x46 x31)) (and (and (and (not (= x46 x4)) (and (not (= x133 x66)) (and (and (not (= x4 x66)) (not (= x66 x46))) (not (= x31 x66))))) (not (= x31 x4))) (not (= x4 x133))))) (not (= x133 x31)))) (and (not (= x56 x105)) (and (and (not (= x105 x98)) (and (not (= x56 x75)) (and (and (not (= x75 x98)) (and (and (not (= x105 x14)) (and (not (= x75 x14)) (not (= x98 x14)))) (not (= x14 x56)))) (not (= x75 x105))))) (not (= x56 x98))))) (and (and (and (and (and (not (= x56 x149)) (and (not (= x149 x133)) (and (not (= x149 x8)) (and (not (= x56 x111)) (and (and (not (= x149 x111)) (not (= x8 x111))) (not (= x111 x133))))))) (not (= x133 x8))) (not (= x8 x56))) (not (= x133 x56))) (and (and (and (and (and (and (and (and (not (= x136 x2)) (and (and (not (= x46 x1)) (and (not (= x1 x2)) (not (= x1 x136)))) (not (= x98 x1)))) (not (= x46 x136))) (not (= x136 x98))) (not (= x46 x2))) (not (= x98 x2))) (not (= x98 x46))) (and (and (and (and (and (not (= x94 x75)) (and (not (= x94 x4)) (and (not (= x94 x110)) (and (not (= x41 x75)) (and (not (= x4 x41)) (and (not (= x94 x41)) (not (= x41 x110)))))))) (not (= x110 x4))) (not (= x110 x75))) (not (= x75 x4))) (and (not (= x66 x14)) (and (not (= x115 x14)) (and (not (= x66 x115)) (and (not (= x86 x14)) (and (and (not (= x115 x86)) (and (and (not (= x66 x18)) (and (not (= x18 x115)) (not (= x18 x86)))) (not (= x14 x18)))) (not (= x66 x86))))))))) (and (not (= x31 x105)) (and (and (and (not (= x117 x105)) (and (and (not (= x117 x45)) (and (not (= x92 x105)) (and (not (= x31 x92)) (and (not (= x92 x117)) (not (= x92 x45)))))) (not (= x31 x117)))) (not (= x31 x45))) (not (= x45 x105)))))))))
(assert (not (and (= x80 (x25 x101 x101)) (and (and (and (= (x25 x101 x91) x101) (and (and (and (and (and (and (= (x25 x90 x80) x80) (and (= x101 (x25 x26 x101)) (and (and (and (= x90 (x25 x26 x91)) (and (= x26 (x25 x26 x80)) (and (= x91 (x25 x91 x101)) (and (= x90 (x25 x91 x90)) (and (and (and (and (= x26 (x25 x80 x101)) (and (= (x25 x80 x90) x101) (and (and (= x91 (x25 x80 x91)) (= (x25 x80 x80) x90)) (= (x25 x80 x26) x80)))) (= (x25 x91 x80) x101)) (= (x25 x91 x91) x80)) (= x26 (x25 x91 x26))))))) (= x91 (x25 x26 x26))) (= x80 (x25 x26 x90))))) (= x26 (x25 x90 x91))) (= (x25 x90 x26) x101)) (= x91 (x25 x90 x90))) (= x90 (x25 x90 x101))) (= x91 (x25 x101 x80)))) (= x90 (x25 x101 x26))) (= x26 (x25 x101 x90))))))
(check-sat)
(exit)
